Solving original (integer) problem with strategy gdp.hull_exact_conic_no_cholesky...
--- Job model.gms Start 02/15/26 21:50:42 52.2.0 d8e408be LEX-LEG x86 64bit/Linux
--- Applying:
    /package/gams/52.2/gmsprmun.txt
--- GAMS Parameters defined
    Input /local/scratch/a/sgusev/repos/k_means/data/gams_scip_gdp.hull_exact_conic_no_cholesky/no_mode/2026-02-15_21-50-41/original/model.gms
    Output /local/scratch/a/sgusev/repos/k_means/data/gams_scip_gdp.hull_exact_conic_no_cholesky/no_mode/2026-02-15_21-50-41/original/output.lst
    ScrDir /local/scratch/a/sgusev/repos/k_means/data/gams_scip_gdp.hull_exact_conic_no_cholesky/no_mode/2026-02-15_21-50-41/original/225a/
    SysDir /package/gams/52.2/
    CurDir /local/scratch/a/sgusev/repos/k_means/data/gams_scip_gdp.hull_exact_conic_no_cholesky/no_mode/2026-02-15_21-50-41/original/
    LogOption 3
    AppendLog 1
Licensee: David Bernal / SECQUOIA Research Group         G251008+0003Ac-GEN
          Purdue University, Davidson School of Chemical EngineeringDCE4838
          225a/gamslice.dat
          5a82958a-fbca-4a23
          node:66820903 mem:995 cores:48 ipport:41299 v:2                  
          Evaluation license: Not for commercial or production use
          The time-limited license stops working on : Jun 30, 2027
System information: 48 physical cores and 995 Gb physical memory detected
GAMS 52.2.0   Copyright (C) 1987-2025 GAMS Development. All rights reserved
--- Starting compilation
--- model.gms(2229) 2 Mb
--- $echo File /local/scratch/a/sgusev/repos/k_means/data/gams_scip_gdp.hull_exact_conic_no_cholesky/no_mode/2026-02-15_21-50-41/original/scip.opt
--- model.gms(3342) 2 Mb
--- Starting execution: elapsed 0:00:00.014
--- model.gms(2239) 3 Mb
--- Generating MINLP model GAMS_MODEL
--- model.gms(2243) 5 Mb
---   675 rows  371 columns  1,779 non-zeroes
---   500 nl-code  200 nl-non-zeroes
---   50 discrete-columns
--- Range statistics (absolute non-zero finite values)
--- RHS       [min, max] : [ 1.000E+00, 1.000E+00] - Zero values observed as well
--- Bound     [min, max] : [ 1.000E+00, 4.000E+01] - Zero values observed as well
--- Matrix    [min, max] : [ 1.296E-02, 4.000E+01] - Zero values observed as well
--- model.gms(2243) 3 Mb
--- Executing SCIP (Solvelink=5): elapsed 0:00:00.019

SCIP             52.2.0 d8e408be Dec 8, 2025           LEG x86 64bit/Linux    
SCIP version 9.2.4 (a94f778ac8)
Copyright (c) 2002-2025 Zuse Institute Berlin (ZIB)

External libraries: 
  CPLEX 22.1.2.0       Linear Programming Solver developed by IBM (www.cplex.com)
  CppAD 20180000.0     Algorithmic Differentiation of C++ algorithms developed by B. Bell (github.com/coin-or/CppAD)
  PaPILO 2.4.4         parallel presolve for integer and linear optimization (github.com/scipopt/papilo) (built with TBB) [GitHash: 7c826d50]
  Nauty 2.8.9          Computing Graph Automorphism Groups by Brendan D. McKay (users.cecs.anu.edu.au/~bdm/nauty)
  sassy 1.1            Symmetry preprocessor by Markus Anders (github.com/markusa4/sassy)
  Ipopt 3.14.19        Interior Point Optimizer developed by A. Waechter et.al. (github.com/coin-or/Ipopt)

reading option file /local/scratch/a/sgusev/repos/k_means/data/gams_scip_gdp.hull_exact_conic_no_cholesky/no_mode/2026-02-15_21-50-41/original/scip.opt
non-default parameter settings:
limits/time = 300
limits/gap = 1e-06
limits/absgap = 1e-10
lp/threads = 1
misc/printreason = FALSE
numerics/dualfeastol = 1e-06
parallel/maxnthreads = 1
nlpi/ipopt/linear_solver = "ma27"
nlpi/ipopt/linear_system_scaling = "mc19"

original problem has 370 variables (50 bin, 0 int, 320 cont) and 674 constraints

all 1 solutions given by solution candidate storage are infeasible

presolving:
(round 1, fast)       10 del vars, 0 del conss, 0 add conss, 50 chg bounds, 0 chg sides, 0 chg coeffs, 0 upgd conss, 0 impls, 10 clqs
(round 2, fast)       10 del vars, 0 del conss, 0 add conss, 50 chg bounds, 10 chg sides, 0 chg coeffs, 0 upgd conss, 0 impls, 10 clqs
(round 3, exhaustive) 10 del vars, 0 del conss, 0 add conss, 50 chg bounds, 10 chg sides, 0 chg coeffs, 460 upgd conss, 0 impls, 10 clqs
   (0.0s) probing cycle finished: starting next cycle
   (0.0s) symmetry computation started: requiring (bin +, int +, cont +), (fixed: bin -, int -, cont -)
   (0.0s) no symmetry present (symcode time: 0.00)
presolving (4 rounds: 4 fast, 2 medium, 2 exhaustive):
 10 deleted vars, 0 deleted constraints, 0 added constraints, 50 tightened bounds, 0 added holes, 10 changed sides, 0 changed coefficients
 1700 implications, 10 cliques
presolved problem has 360 variables (50 bin, 0 int, 0 impl, 310 cont) and 674 constraints
    450 constraints of type <varbound>
     10 constraints of type <setppc>
    164 constraints of type <linear>
     50 constraints of type <nonlinear>
Presolving Time: 0.02

 time | node  | left  |LP iter|LP it/n|mem/heur|mdpt |vars |cons |rows |cuts |sepa|confs|strbr|  dualbound   | primalbound  |  gap   | compl. 
  0.0s|     1 |     0 |   427 |     - |  6855k |   0 | 560 | 674 |1074 |   0 |  0 |   0 |   0 | 0.000000e+00 |      --      |    Inf | unknown
o 0.1s|     1 |     0 |   492 |     - |feaspump|   0 | 560 | 674 |1074 |   0 |  0 |   0 |   0 | 0.000000e+00 | 4.627747e+00 |    Inf | unknown
  0.1s|     1 |     0 |   599 |     - |  7384k |   0 | 560 | 674 |1145 |  71 |  1 |   0 |   0 | 0.000000e+00 | 4.627747e+00 |    Inf | unknown
  0.1s|     1 |     0 |   599 |     - |  7401k |   0 | 560 | 674 |1135 |  71 |  1 |   0 |   0 | 0.000000e+00 | 4.627747e+00 |    Inf | unknown
  0.1s|     1 |     0 |   681 |     - |  8015k |   0 | 560 | 674 |1191 | 127 |  2 |   0 |   0 | 0.000000e+00 | 4.627747e+00 |    Inf | unknown
  0.1s|     1 |     0 |   753 |     - |  8176k |   0 | 560 | 674 |1246 | 182 |  3 |   0 |   0 | 0.000000e+00 | 4.627747e+00 |    Inf | unknown
  0.1s|     1 |     0 |   841 |     - |  8422k |   0 | 560 | 674 |1298 | 234 |  4 |   0 |   0 | 0.000000e+00 | 4.627747e+00 |    Inf | unknown
  0.1s|     1 |     0 |   991 |     - |  8674k |   0 | 560 | 674 |1362 | 298 |  5 |   0 |   0 | 0.000000e+00 | 4.627747e+00 |    Inf | unknown
  0.2s|     1 |     0 |  1107 |     - |  9379k |   0 | 560 | 674 |1431 | 367 |  6 |   0 |   0 | 0.000000e+00 | 4.627747e+00 |    Inf | unknown
  0.2s|     1 |     0 |  1212 |     - |  9547k |   0 | 560 | 674 |1491 | 427 |  7 |   0 |   0 | 0.000000e+00 | 4.627747e+00 |    Inf | unknown
  0.2s|     1 |     0 |  1346 |     - |  9728k |   0 | 560 | 674 |1553 | 489 |  8 |   0 |   0 | 0.000000e+00 | 4.627747e+00 |    Inf | unknown
  0.2s|     1 |     0 |  1447 |     - |    10M |   0 | 560 | 674 |1611 | 547 |  9 |   0 |   0 | 0.000000e+00 | 4.627747e+00 |    Inf | unknown
  0.2s|     1 |     0 |  1637 |     - |    10M |   0 | 560 | 674 |1657 | 593 | 10 |   0 |   0 | 0.000000e+00 | 4.627747e+00 |    Inf | unknown
  0.3s|     1 |     0 |  1758 |     - |    10M |   0 | 560 | 674 |1278 | 639 | 11 |   0 |   0 | 0.000000e+00 | 4.627747e+00 |    Inf | unknown
  0.3s|     1 |     0 |  1893 |     - |    10M |   0 | 560 | 674 |1318 | 679 | 12 |   0 |   0 | 0.000000e+00 | 4.627747e+00 |    Inf | unknown
 time | node  | left  |LP iter|LP it/n|mem/heur|mdpt |vars |cons |rows |cuts |sepa|confs|strbr|  dualbound   | primalbound  |  gap   | compl. 
  0.3s|     1 |     0 |  1893 |     - |    10M |   0 | 560 | 664 |1318 | 679 | 12 |   0 |   0 | 0.000000e+00 | 4.627747e+00 |    Inf | unknown
  0.3s|     1 |     0 |  2073 |     - |    10M |   0 | 560 | 664 |1365 | 726 | 13 |   0 |   0 | 0.000000e+00 | 4.627747e+00 |    Inf | unknown
  0.3s|     1 |     0 |  2195 |     - |    10M |   0 | 560 | 664 |1410 | 771 | 14 |   0 |   0 | 0.000000e+00 | 4.627747e+00 |    Inf | unknown
  0.3s|     1 |     0 |  2285 |     - |    11M |   0 | 560 | 664 |1453 | 814 | 15 |   0 |   0 | 0.000000e+00 | 4.627747e+00 |    Inf | unknown
  0.4s|     1 |     0 |  2359 |     - |    11M |   0 | 560 | 664 |1495 | 856 | 16 |   0 |   0 | 0.000000e+00 | 4.627747e+00 |    Inf | unknown
  0.4s|     1 |     0 |  2410 |     - |    11M |   0 | 560 | 664 |1193 | 884 | 17 |   0 |   0 | 0.000000e+00 | 4.627747e+00 |    Inf | unknown
  0.4s|     1 |     0 |  2457 |     - |    11M |   0 | 560 | 664 |1217 | 908 | 18 |   0 |   0 | 0.000000e+00 | 4.627747e+00 |    Inf | unknown
  0.4s|     1 |     0 |  2480 |     - |    11M |   0 | 560 | 664 |1232 | 923 | 19 |   0 |   0 | 0.000000e+00 | 4.627747e+00 |    Inf | unknown
  0.4s|     1 |     0 |  2501 |     - |    11M |   0 | 560 | 664 |1246 | 937 | 20 |   0 |   0 | 0.000000e+00 | 4.627747e+00 |    Inf | unknown
  0.4s|     1 |     0 |  2512 |     - |    11M |   0 | 560 | 664 |1251 | 942 | 21 |   0 |   0 | 0.000000e+00 | 4.627747e+00 |    Inf | unknown
  0.4s|     1 |     0 |  2518 |     - |    11M |   0 | 560 | 664 |1253 | 944 | 22 |   0 |   0 | 0.000000e+00 | 4.627747e+00 |    Inf | unknown
  0.5s|     1 |     0 |  2526 |     - |    11M |   0 | 560 | 664 |1005 | 947 | 23 |   0 |   0 | 0.000000e+00 | 4.627747e+00 |    Inf | unknown
L 1.4s|     1 |     0 |  2612 |     - |    rens|   0 | 560 | 664 |1005 | 947 | 23 |   0 |   0 | 0.000000e+00 | 1.939168e+00 |    Inf | unknown
  1.8s|     1 |     0 |  2612 |     - |    12M |   0 | 560 | 664 |1005 | 947 | 23 |   0 |   0 | 0.000000e+00 | 1.939168e+00 |    Inf | unknown
  1.8s|     1 |     0 |  2613 |     - |    12M |   0 | 560 | 664 |1006 | 948 | 24 |   0 |   0 | 0.000000e+00 | 1.939168e+00 |    Inf | unknown
 time | node  | left  |LP iter|LP it/n|mem/heur|mdpt |vars |cons |rows |cuts |sepa|confs|strbr|  dualbound   | primalbound  |  gap   | compl. 
  1.8s|     1 |     0 |  2613 |     - |    12M |   0 | 560 | 664 |1006 | 948 | 25 |   0 |   4 | 0.000000e+00 | 1.939168e+00 |    Inf | unknown
  1.8s|     1 |     0 |  2615 |     - |    12M |   0 | 560 | 664 |1007 | 949 | 26 |   0 |   4 | 0.000000e+00 | 1.939168e+00 |    Inf | unknown
  1.9s|     1 |     0 |  2615 |     - |    12M |   0 | 560 | 664 |1007 | 949 | 27 |   0 |   8 | 0.000000e+00 | 1.939168e+00 |    Inf | unknown
  1.9s|     1 |     0 |  2615 |     - |    12M |   0 | 560 | 664 |1007 | 949 | 28 |   0 |  13 | 0.000000e+00 | 1.939168e+00 |    Inf | unknown
  1.9s|     1 |     0 |  2615 |     - |    12M |   0 | 560 | 664 |1007 | 949 | 29 |   0 |  18 | 0.000000e+00 | 1.939168e+00 |    Inf | unknown
  2.0s|     1 |     0 |  2615 |     - |    12M |   0 | 560 | 664 |1007 | 949 | 30 |   0 |  21 | 0.000000e+00 | 1.939168e+00 |    Inf | unknown
  2.0s|     1 |     0 |  2615 |     - |    12M |   0 | 560 | 664 |1007 | 949 | 31 |   0 |  24 | 0.000000e+00 | 1.939168e+00 |    Inf | unknown
  2.0s|     1 |     2 |  2615 |     - |    12M |   0 | 560 | 664 |1007 | 949 | 32 |   0 |  24 | 0.000000e+00 | 1.939168e+00 |    Inf | unknown
* 2.9s|    34 |    16 |  9810 | 224.9 |    LP  |  13 | 560 | 690 |1318 |3560 | 11 |  28 | 167 | 0.000000e+00 | 1.707984e+00 |    Inf |   1.75%
d 4.0s|    98 |    61 | 26884 | 252.5 |fracdivi|  15 | 560 | 697 |1336 |9218 |  4 |  43 | 230 | 0.000000e+00 | 1.466360e+00 |    Inf |   4.69%
  4.0s|   100 |    63 | 27403 | 252.7 |    20M |  15 | 560 | 697 |1121 |9347 |  2 |  43 | 230 | 0.000000e+00 | 1.466360e+00 |    Inf |   4.69%
d 4.8s|   138 |    82 | 39897 | 273.8 |linesear|  18 | 560 | 694 |1353 |  12k|  8 |  45 | 233 | 0.000000e+00 | 9.157469e-01 |    Inf |   8.84%
d 5.1s|   149 |    92 | 44668 | 285.7 |pscostdi|  18 | 560 | 698 |1344 |  13k|  7 |  51 | 233 | 0.000000e+00 | 8.721981e-01 |    Inf |   9.53%
d 5.4s|   160 |   102 | 48772 | 291.7 |linesear|  18 | 560 | 698 |1263 |  14k|  6 |  53 | 233 | 0.000000e+00 | 8.085255e-01 |    Inf |   9.80%
d 5.8s|   189 |    96 | 55255 | 281.2 |nlpdivin|  20 | 560 | 706 |1379 |   0 |  7 |  70 | 235 | 0.000000e+00 | 4.995596e-01 |    Inf |  16.46%
 time | node  | left  |LP iter|LP it/n|mem/heur|mdpt |vars |cons |rows |cuts |sepa|confs|strbr|  dualbound   | primalbound  |  gap   | compl. 
  5.9s|   200 |    99 | 56572 | 272.3 |    29M |  20 | 560 | 706 |1386 |  16k|  7 |  71 | 235 | 0.000000e+00 | 4.995596e-01 |    Inf |  16.97%
  6.9s|   300 |   125 | 70569 | 228.0 |    33M |  22 | 560 | 717 |1372 |  21k|  2 |  92 | 246 | 0.000000e+00 | 4.995596e-01 |    Inf |  23.30%
  8.2s|   400 |   141 | 88917 | 216.9 |    37M |  22 | 560 | 743 |1471 |  27k|  5 | 127 | 259 | 0.000000e+00 | 4.995596e-01 |    Inf |  30.84%
* 9.1s|   471 |   122 | 98755 | 205.0 |    LP  |  22 | 560 | 750 |1336 |  30k|  8 | 139 | 259 | 0.000000e+00 | 4.080887e-01 |    Inf |  33.81%
  9.3s|   500 |   117 |102393 | 200.4 |    41M |  22 | 560 | 751 |1279 |  31k|  0 | 145 | 259 | 0.000000e+00 | 4.080887e-01 |    Inf |  37.64%
 10.7s|   600 |   137 |120952 | 197.9 |    45M |  22 | 560 | 751 |1328 |  36k|  6 | 158 | 272 | 0.000000e+00 | 4.080887e-01 |    Inf |  41.43%
 11.5s|   700 |   137 |132908 | 186.7 |    47M |  22 | 560 | 754 |1257 |  39k|  0 | 179 | 277 | 0.000000e+00 | 4.080887e-01 |    Inf |  45.50%
 12.3s|   800 |   153 |144645 | 178.0 |    49M |  24 | 560 | 760 |1450 |  42k|  6 | 197 | 280 | 0.000000e+00 | 4.080887e-01 |    Inf |  45.89%
 13.1s|   900 |   143 |156869 | 171.8 |    50M |  24 | 560 | 764 |1376 |  46k|  1 | 217 | 283 | 0.000000e+00 | 4.080887e-01 |    Inf |  49.83%
 14.3s|  1000 |   163 |172256 | 170.0 |    54M |  24 | 560 | 768 |1329 |  49k|  2 | 243 | 289 | 0.000000e+00 | 4.080887e-01 |    Inf |  50.27%
 15.2s|  1100 |   171 |180323 | 161.9 |    55M |  31 | 560 | 771 |1468 |  52k|  2 | 261 | 299 | 3.573840e-03 | 4.080887e-01 |  Large |  52.50%
 15.9s|  1200 |   163 |189406 | 156.0 |    55M |  31 | 560 | 772 |1383 |  54k|  0 | 277 | 317 | 7.699595e-03 | 4.080887e-01 |5200.13%|  54.40%
 16.7s|  1300 |   138 |197659 | 150.3 |    57M |  31 | 560 | 773 |1225 |  57k|  0 | 293 | 324 | 3.175835e-02 | 4.080887e-01 |1184.98%|  64.00%
 17.3s|  1400 |   128 |204390 | 144.4 |    57M |  31 | 560 | 773 |1500 |  58k|  4 | 310 | 331 | 4.759133e-02 | 4.080887e-01 | 757.49%|  66.98%
 18.0s|  1500 |   107 |212295 | 140.0 |    58M |  31 | 560 | 775 |1505 |  61k|  6 | 341 | 354 | 6.554695e-02 | 4.080887e-01 | 522.59%|  72.49%
 time | node  | left  |LP iter|LP it/n|mem/heur|mdpt |vars |cons |rows |cuts |sepa|confs|strbr|  dualbound   | primalbound  |  gap   | compl. 
 18.5s|  1600 |    79 |217746 | 134.7 |    58M |  31 | 560 | 776 |1412 |  62k|  0 | 355 | 359 | 1.004747e-01 | 4.080887e-01 | 306.16%|  76.91%
 19.2s|  1700 |    53 |225467 | 131.3 |    59M |  31 | 560 | 779 |1387 |  64k|  5 | 372 | 363 | 1.357816e-01 | 4.080887e-01 | 200.55%|  81.55%
 19.9s|  1800 |    16 |233087 | 128.2 |    59M |  31 | 560 | 783 |3058 |  66k|  1 | 390 | 373 | 1.736660e-01 | 4.080887e-01 | 134.98%|  91.98%

SCIP Status        : problem is solved [optimal solution found]
Solving Time (sec) : 20.00
Solving Nodes      : 1825
Primal Bound       : +4.08088738078136e-01 (14 solutions)
Dual Bound         : +4.08088738078136e-01
Gap                : 0.00 %


--- Reading solution for model GAMS_MODEL
***
*** Solver did not provide marginals for model GAMS_MODEL
***
--- Executing after solve: elapsed 0:00:20.082
--- model.gms(2246) 3 Mb
--- model.gms(3342) 5 Mb
--- Putfile results /local/scratch/a/sgusev/repos/k_means/data/gams_scip_gdp.hull_exact_conic_no_cholesky/no_mode/2026-02-15_21-50-41/original/results.dat
--- Putfile statresults /local/scratch/a/sgusev/repos/k_means/data/gams_scip_gdp.hull_exact_conic_no_cholesky/no_mode/2026-02-15_21-50-41/original/resultsstat.dat
*** Status: Normal completion
--- Job model.gms Stop 02/15/26 21:51:02 elapsed 0:00:20.084
Original problem solved. Time taken: 20.86898946762085 seconds
Original objective value: 0.408088738078134
